# Objective value = 10
X[0] 0
X[1] 0
X[2] 0
X[3] 0
X[4] 0
X[5] 0
X[6] 0
X[7] 1
X[8] 0
X[9] 1
X[10] 0
X[11] 0
X[12] 0
X[13] 1
X[14] 0
X[15] 0
X[16] 1
X[17] 0
X[18] 0
X[19] 1
X[20] 0
X[21] 0
X[22] 0
X[23] 0
X[24] 0
X[25] 0
X[26] 0
X[27] 0
X[28] 0
X[29] 0
X[30] 0
X[31] 0
X[32] 1
X[33] 0
X[34] 0
X[35] 1
X[36] 0
X[37] 0
X[38] 0
X[39] 0
X[40] 0
X[41] 0
X[42] 0
X[43] 0
X[44] 0
X[45] 1
X[46] 0
X[47] 0
X[48] 0
X[49] 1
X[50] 0
X[51] 0
X[52] 0
X[53] 1
X[54] 0
